673852
186,171,150,90,109,228,88,12,146,129,224,103,187,180,121,41,106,219,190,99,202,105,175,54,56,18,92,53,100,216,66,24,141,128,222,77,158,82,149,115,2,204,172,168,93,221,59,213,45,212,230,104,17,176,223,5,156,211,145,144,91,26,22,117,20,183,210,7,36,1,72,63,32,118,71,49,67,39,207,147,127,163,178,159,208,3,185,189,16,60,137,138,122,152,191,114,10,201,198,200,65,154,14,110,165,194,97,120,8,15,30,64,44,220,13,47,225,48,111,134,19,227,125,46,58,139,76,11,143,197,214,164,174,29,57,95,79,167,85,123,25,52,132,80,182,61,148,131,173,124,188,181,136,195,84,193,119,86,70,206,218,126,209,73,113,160,42,98,51,177,226,69,23,199,31,43,74,157,83,140,135,162,229,133,155,112,27,169,40,81,130,102,62,55,151,87,35,94,108,50,28,78,215,75,205,34,37,192,179,196,107,161,184,116,89,96,166,101,9,68,6,203,38,33,153,217,21,4,142,170